&bands
    prefix = 'graphene'
    outdir = '../tmp/'
    filband = 'graphene_bands.dat'
/
