&control
    calculation = 'bands'
    prefix = 'MoS2'
    pseudo_dir = '../pseudo/'
    outdir = '../tmp2/'
    verbosity = 'high'
/
&system
    ibrav = 0, nat = 3, ntyp = 2,
    ecutwfc = 60.0,
    occupations = 'smearing', smearing = 'gaussian', degauss = 0.005
/
&electrons
    conv_thr = 1.0d-8
/
ATOMIC_SPECIES
Mo 95.95  Mo.pbe-n-nc.UPF
S 32.065  S.pbe-n-nc.UPF
CELL_PARAMETERS (angstrom)
   1.5921519154827339    2.7576880109842050    0.0000000000000000
   3.1843038309654679    0.0000000000000000    0.0000000000000000
   1.5921519154827339    0.9192293369947351   -6.4820983796053611
ATOMIC_POSITIONS (crystal)
Mo   0.9997750399999998    0.9997750399999994    0.0006748800000007
S   0.4129302199999997    0.4129302199999994    0.7612093400000010 
S   0.2532957399999997    0.2532957399999994    0.2401127800000009 

K_POINTS crystal_b
8
0.000000  0.000000  0.000000  10  ! Gamma
0.500000  0.000000  0.000000  10  ! M
0.333333  0.333333  0.000000  10  ! K
0.000000  0.000000  0.000000  10  ! Gamma
0.000000  0.000000  0.500000  10  ! A
0.500000  0.000000  0.500000  10  ! L
0.333333  0.333333  0.500000  10  ! H
0.000000  0.000000  0.500000   1  ! A
