&control
    calculation = 'nscf'
    prefix = 'graphene'
    pseudo_dir = '../pseudo/'
    outdir = '../tmp/'
/
&system
    ibrav = 0, nat = 2, ntyp = 1,
    ecutwfc = 50.0,
    occupations = 'tetrahedra'
/
&electrons
    conv_thr = 1.0d-8
/
ATOMIC_SPECIES
  C  12.011  C_ONCV_PBE_sr.upf
CELL_PARAMETERS (angstrom)
   2.46000   0.00000   0.00000
  -1.23000   2.13042   0.00000
   0.00000   0.00000  10.00000
ATOMIC_POSITIONS (crystal)
  C  0.000000  0.000000  0.000000
  C  0.333333  0.666667  0.000000
K_POINTS {automatic}
  18 18 1 0 0 0
