&projwfc
    prefix = 'graphene'
    outdir = '../tmp/'
    Emin = -30.0
    Emax = 10.0
    DeltaE = 0.1
    filpdos = 'graphene_pdos'
/
